# Solution for model r10_t9_m1_7
# Finished Task: 9 / 9
# Makespan: 526.0, Total Distance: 109.0, Total Time: 1.4284
# R O S F
0 0 12 68.0 68.0
1 1 -1 24.0 24.0
2 2 17 0.0 0.0
3 3 10 58.0 58.0
4 4 11 58.0 58.0
5 5 14 39.0 39.0
6 6 -1 62.0 62.0
7 7 -1 29.0 29.0
8 8 -1 31.0 31.0
9 9 15 106.0 106.0
10 3 -1 241.0 277.0
11 4 -1 313.0 341.0
12 0 -1 499.0 526.0
13 2 16 383.0 415.0
14 5 -1 353.0 383.0
15 9 -1 110.0 145.0
16 2 18 439.0 472.0
17 2 13 277.0 308.0
18 2 -1 472.0 499.0
